
List of user-set options:

                                    Name   Value                used
                           compl_inf_tol = 1                     yes
                         constr_viol_tol = 1                     yes
                            dual_inf_tol = 1000                  yes
                           linear_solver = ma97                  yes
                              ma86_small = 1e-30                  no
                                  ma86_u = 0.0001                 no
                              ma97_order = best                  yes
                              ma97_small = 1e-30                 yes
                            ma97_switch1 = at_start              yes
                            ma97_switch2 = od_hd_reuse           yes
                                  ma97_u = 1e-06                 yes
                               ma97_umax = 0.5                   yes
                                max_iter = 1000                  yes
                    max_refinement_steps = 20                    yes
                    min_refinement_steps = 5                     yes
                                 mu_init = 1e-06                 yes
           mu_superlinear_decrease_power = 1.25                  yes
                   nlp_scaling_min_value = 1e-08                 yes
                        option_file_name = Preset_Case_757_pf.opt  yes
                             output_file = ./tmp/Preset_Case_757_pf.output  yes
                      print_user_options = yes                   yes
        required_infeasibility_reduction = 1                      no
                                     tol = 1e-08                 yes
                   warm_start_bound_frac = 1e-20                 yes
                   warm_start_bound_push = 1e-20                 yes
                   warm_start_init_point = yes                   yes
              warm_start_mult_bound_push = 1e-20                 yes
                warm_start_mult_init_max = 1e+40                 yes
             warm_start_slack_bound_frac = 1e-20                 yes
             warm_start_slack_bound_push = 1e-20                 yes

******************************************************************************
This program contains Ipopt, a library for large-scale nonlinear optimization.
 Ipopt is released as open source code under the Eclipse Public License (EPL).
         For more information visit http://projects.coin-or.org/Ipopt
******************************************************************************

This is Ipopt version 3.12.10, running with linear solver ma97.

Number of nonzeros in equality constraint Jacobian...:   123443
Number of nonzeros in inequality constraint Jacobian.:      213
Number of nonzeros in Lagrangian Hessian.............:    49069

Total number of variables............................:    31591
                     variables with only lower bounds:    12912
                variables with lower and upper bounds:    15130
                     variables with only upper bounds:        0
Total number of equality constraints.................:    31483
Total number of inequality constraints...............:       25
        inequality constraints with only lower bounds:        4
   inequality constraints with lower and upper bounds:        0
        inequality constraints with only upper bounds:       21

iter    objective    inf_pr   inf_du lg(mu)  ||d||  lg(rg) alpha_du alpha_pr  ls
   0 -4.9970022e+00 4.08e-03 1.02e+00  -6.0 0.00e+00    -  0.00e+00 0.00e+00   0
   1 -5.0040753e+00 9.01e+00 8.12e+01  -6.0 3.01e+05    -  1.11e-04 1.54e-03h  1
   2 -5.0040343e+00 9.01e+00 8.12e+01  -6.0 6.50e+02    -  1.07e-04 3.22e-05h  1
   3 -4.9978232e+00 8.98e+00 1.61e+02  -6.0 2.10e+04    -  1.04e-04 2.36e-03h  1
   4 -4.9965795e+00 8.97e+00 1.79e+02  -6.0 2.70e+03    -  2.41e-01 1.03e-03h  2
   5 -4.9962721e+00 8.97e+00 1.79e+02  -6.0 2.23e+03    -  1.41e-03 2.05e-04h  8
   6 -4.9961982e+00 8.97e+00 1.79e+02  -6.0 2.67e+03    -  4.88e-03 6.12e-05h 13
   7 -4.9939663e+00 8.96e+00 1.62e+02  -6.0 2.68e+03    -  1.85e-03 1.85e-03s 20
   8r-4.9939663e+00 8.96e+00 9.99e+02   1.0 0.00e+00    -  0.00e+00 0.00e+00R  1
   9r-4.9976691e+00 8.96e+00 9.99e+02   1.0 1.74e+06    -  5.92e-08 5.54e-08f  1
iter    objective    inf_pr   inf_du lg(mu)  ||d||  lg(rg) alpha_du alpha_pr  ls
  10 -5.0250701e+00 8.93e+00 1.47e+04  -6.0 1.37e+05    -  3.14e-04 3.02e-03h  1
  11 -5.0553668e+00 3.29e+01 1.45e+04  -6.0 2.17e+05    -  3.03e-06 1.00e-02h  1
  12 -5.0818565e+00 3.27e+01 2.14e+04  -6.0 8.54e+04    -  2.87e-04 1.19e-02h  1
  13 -5.0707005e+00 3.26e+01 4.47e+04  -6.0 8.25e+03    -  1.55e-02 2.63e-02h  2
  14 -5.0865857e+00 3.22e+01 5.34e+04  -6.0 2.26e+04    -  1.25e-02 1.23e-02h  1
  15 -5.1070648e+00 3.10e+01 1.46e+05  -6.0 1.76e+04    -  2.67e-02 3.75e-02h  1
  16 -5.0865570e+00 2.99e+01 1.28e+05  -6.0 5.54e+03    -  7.98e-02 3.66e-02h  1
  17 -5.0322483e+00 2.70e+01 8.35e+04  -6.0 4.07e+03    -  1.07e-01 9.62e-02h  1
  18 -5.0260511e+00 2.66e+01 8.16e+04  -6.0 2.35e+03    -  3.43e-02 1.55e-02h  4
  19 -5.0253422e+00 2.65e+01 8.14e+04  -6.0 2.29e+03    -  1.53e-01 1.95e-03h  7
iter    objective    inf_pr   inf_du lg(mu)  ||d||  lg(rg) alpha_du alpha_pr  ls
  20 -5.0249891e+00 2.65e+01 8.13e+04  -6.0 2.30e+03    -  6.30e-02 9.82e-04h  8
  21 -5.0248180e+00 2.65e+01 8.13e+04  -6.0 2.36e+03    -  1.88e-02 4.83e-04h  9
  22 -5.0247680e+00 2.64e+01 8.13e+04  -6.0 8.04e+03    -  2.72e-02 3.92e-03h  1
  23 -5.0247466e+00 2.64e+01 8.13e+04  -6.0 2.50e+03    -  1.83e-01 6.38e-05h  9
  24 -5.0247270e+00 2.64e+01 8.13e+04  -6.0 2.40e+03    -  6.94e-02 5.75e-05h 12
  25 -4.9842308e+00 2.33e+01 4.21e+04  -6.0 2.40e+03    -  1.19e-01 1.19e-01s 19
  26r-4.9842308e+00 2.33e+01 1.00e+03   1.1 0.00e+00    -  0.00e+00 0.00e+00R  1
  27r-4.9913318e+00 2.33e+01 1.01e+03   1.1 2.75e+05    -  1.49e-07 8.62e-08f  1
  28r-5.0166465e+00 2.33e+01 1.00e+03   1.1 1.92e+05    -  4.87e-07 5.58e-07f  1
  29 -5.0166476e+00 2.33e+01 1.01e+02  -6.0 3.48e+02    -  7.19e-07 5.13e-05h  1
iter    objective    inf_pr   inf_du lg(mu)  ||d||  lg(rg) alpha_du alpha_pr  ls
  30 -5.0164903e+00 2.33e+01 1.89e+02  -6.0 3.47e+02    -  3.48e-03 6.74e-04h  1
  31 -5.0156577e+00 2.32e+01 1.01e+02  -6.0 3.45e+02    -  7.36e-04 3.58e-03h  1
  32 -5.0082464e+00 2.24e+01 1.88e+03  -6.0 3.43e+02    -  4.58e-03 3.24e-02h  1
  33 -5.0081098e+00 2.24e+01 1.61e+03  -6.0 3.10e+02    -  4.84e-03 1.87e-04h  7
  34 -5.0080547e+00 2.24e+01 1.60e+03  -6.0 2.84e+02    -  2.65e-04 6.65e-05h  9
  35 -5.0080405e+00 2.24e+01 1.59e+03  -6.0 2.82e+02    -  1.82e-04 1.71e-05h 11
  36 -4.9983394e+00 2.22e+01 1.57e+03  -6.0 2.81e+02    -  1.16e-02 1.16e-02s 17
  37 -4.9890576e+00 2.19e+01 1.55e+03  -6.0 2.71e+02    -  1.16e-02 1.16e-02s 17
  38 -4.9569763e+00 2.10e+01 1.49e+03  -6.0 2.68e+02    -  4.08e-02 4.08e-02s 17
  39r-4.9569763e+00 2.10e+01 1.00e+03   1.1 0.00e+00    -  0.00e+00 0.00e+00R  1
iter    objective    inf_pr   inf_du lg(mu)  ||d||  lg(rg) alpha_du alpha_pr  ls
  40r-4.9548114e+00 2.10e+01 2.60e+04   1.1 5.50e+04    -  3.97e-07 4.64e-08f  1
  41r-4.9638147e+00 2.10e+01 2.58e+04   1.1 4.43e+04    -  6.64e-07 1.69e-06f  1
  42r-4.9509656e+00 2.09e+01 2.57e+04   1.1 1.55e+04    -  1.45e-06 2.94e-06f  1
  43r-4.9395863e+00 2.08e+01 3.04e+04   1.1 1.52e+04    -  2.33e-06 5.79e-06f  1
  44r-4.9348251e+00 2.05e+01 3.04e+04   1.1 1.49e+04    -  1.38e-05 1.28e-05f  1
  45r-4.9735378e+00 1.97e+01 3.04e+04   1.1 1.44e+04    -  1.01e-05 4.09e-05f  1
  46 -4.9735377e+00 1.97e+01 2.18e+05  -6.0 2.00e+02    -  4.72e-02 1.35e-03h  1
  47 -4.9613668e+00 1.94e+01 2.13e+06  -6.0 2.14e+02    -  1.35e-03 1.29e-02h  4
  48 -4.9601342e+00 1.94e+01 2.12e+06  -6.0 2.09e+02    -  3.17e-02 1.43e-03h  1
  49 -4.8783202e+00 1.77e+01 1.94e+06  -6.0 2.09e+02    -  2.85e-02 8.88e-02h  1
iter    objective    inf_pr   inf_du lg(mu)  ||d||  lg(rg) alpha_du alpha_pr  ls
  50 -4.8756031e+00 1.76e+01 1.93e+06  -6.0 2.07e+02    -  1.35e-01 4.04e-03h  1
  51 -4.8321360e+00 1.66e+01 1.82e+06  -6.0 2.43e+02    -  4.36e-02 5.67e-02h  1
  52 -4.7941484e+00 1.57e+01 1.72e+06  -6.0 2.28e+02    -  1.43e-01 5.61e-02h  1
  53 -4.7029976e+00 1.30e+01 1.43e+06  -6.0 2.20e+02    -  8.59e-02 1.68e-01h  1
  54 -4.6966375e+00 1.17e+01 1.28e+06  -6.0 2.00e+02    -  7.27e-02 1.06e-01h  1
  55 -4.6966871e+00 1.16e+01 1.27e+06  -6.0 1.79e+02    -  2.39e-03 1.97e-03h  1
  56 -4.6968274e+00 1.16e+01 1.27e+06  -6.0 1.78e+02    -  9.04e-05 6.09e-03h  1
  57 -4.6970022e+00 1.15e+01 1.26e+06  -6.0 1.77e+02    -  1.18e-04 7.44e-03h  1
  58 -4.6972284e+00 1.14e+01 1.25e+06  -6.0 1.75e+02    -  2.10e-04 8.72e-03h  1
  59 -4.6975067e+00 1.13e+01 1.23e+06  -6.0 1.74e+02    -  2.75e-04 1.01e-02h  1
iter    objective    inf_pr   inf_du lg(mu)  ||d||  lg(rg) alpha_du alpha_pr  ls
  60 -4.6978398e+00 1.11e+01 1.22e+06  -6.0 1.71e+02    -  3.32e-04 1.15e-02h  1
  61 -4.6982272e+00 1.10e+01 1.20e+06  -6.0 1.69e+02    -  3.84e-04 1.27e-02h  1
  62 -4.6986680e+00 1.08e+01 1.19e+06  -6.0 1.66e+02    -  4.31e-04 1.39e-02h  1
  63 -4.6991703e+00 1.07e+01 1.17e+06  -6.0 1.63e+02    -  4.77e-04 1.52e-02h  1
  64 -4.6997536e+00 1.05e+01 1.15e+06  -6.0 1.60e+02    -  5.31e-04 1.70e-02h  1
  65 -4.7004408e+00 1.03e+01 1.13e+06  -6.0 1.57e+02    -  6.07e-04 1.92e-02h  1
  66 -4.7012559e+00 1.01e+01 1.10e+06  -6.0 1.53e+02    -  7.10e-04 2.19e-02h  1
  67 -4.7022281e+00 9.81e+00 1.07e+06  -6.0 1.48e+02    -  8.44e-04 2.51e-02h  1
  68 -4.7033898e+00 9.53e+00 1.04e+06  -6.0 1.43e+02    -  1.02e-03 2.87e-02h  1
  69 -4.7047511e+00 9.22e+00 1.01e+06  -6.0 1.37e+02    -  1.25e-03 3.21e-02h  1
iter    objective    inf_pr   inf_du lg(mu)  ||d||  lg(rg) alpha_du alpha_pr  ls
  70 -4.7055762e+00 9.05e+00 9.91e+05  -6.0 1.31e+02    -  1.51e-03 1.85e-02h  1
  71r-4.7055762e+00 9.05e+00 1.00e+03   0.7 0.00e+00    -  0.00e+00 2.83e-08R  2
  72r-4.7070275e+00 9.05e+00 1.00e+03   0.7 8.69e+04    -  3.64e-08 7.59e-08f  1
  73 -4.7070291e+00 9.05e+00 1.01e+02  -6.0 1.10e+02    -  1.17e-04 1.35e-05h  1
  74 -4.7071428e+00 9.04e+00 1.01e+02  -6.0 1.30e+02    -  6.72e-05 9.82e-04f  1
  75 -4.7071577e+00 9.04e+00 4.28e+02  -6.0 1.29e+02    -  5.31e-03 1.81e-04h  1
  76 -4.7073698e+00 9.01e+00 4.95e+03  -6.0 1.30e+02    -  4.91e-02 2.67e-03h  1
  77 -4.7073721e+00 9.01e+00 5.12e+03  -6.0 4.01e+02    -  2.43e-05 1.10e-06h  2
  78 -4.7078631e+00 9.01e+00 5.38e+03  -6.0 3.48e+02    -  7.14e-05 2.71e-04h  1
  79 -4.7085815e+00 9.01e+00 9.02e+03  -6.0 2.50e+02    -  3.44e-04 5.82e-04f  1
iter    objective    inf_pr   inf_du lg(mu)  ||d||  lg(rg) alpha_du alpha_pr  ls
  80 -4.7103998e+00 8.99e+00 1.67e+04  -6.0 2.71e+02    -  1.00e-03 1.72e-03h  1
  81 -4.7232021e+00 8.85e+00 8.05e+04  -6.0 2.82e+02    -  3.23e-03 1.60e-02f  1
  82 -4.7432030e+00 8.28e+00 3.12e+04  -6.0 2.06e+02    -  1.92e-02 6.39e-02h  1
  83 -4.7491931e+00 7.95e+00 2.84e+04  -6.0 1.15e+02    -  4.68e-02 4.05e-02h  1
  84 -4.7736388e+00 7.19e+00 3.05e+04  -6.0 1.02e+02    -  3.76e-02 9.50e-02h  1
  85 -4.7755185e+00 7.00e+00 2.61e+04  -6.0 7.36e+01    -  1.50e-01 2.63e-02h  1
  86 -4.7680504e+00 5.76e+00 2.03e+04  -6.0 7.79e+01    -  2.93e-01 1.77e-01h  1
  87 -4.7829938e+00 3.62e+00 1.88e+04  -6.0 4.23e+01    -  4.37e-01 3.71e-01h  1
  88 -4.8680078e+00 2.20e+00 6.10e+03  -6.0 2.86e+01    -  1.53e-01 3.92e-01h  1
  89 -5.1303147e+00 8.36e-01 1.87e+04  -6.0 2.95e+01    -  1.56e-02 6.20e-01h  1
iter    objective    inf_pr   inf_du lg(mu)  ||d||  lg(rg) alpha_du alpha_pr  ls
  90 -5.1303507e+00 8.35e-01 3.75e+04  -6.0 5.64e+01    -  5.04e-01 9.78e-04h  1
  91 -5.1376062e+00 7.08e-01 3.32e+04  -6.0 5.58e+01    -  2.98e-01 1.52e-01h  1
  92 -5.1586132e+00 8.47e-01 6.65e+03  -6.0 5.39e+01    -  5.65e-01 9.29e-01h  1
  93 -5.2098213e+00 5.39e-01 4.89e+03  -6.0 3.93e+01    -  5.90e-01 3.66e-01h  1
  94 -5.2846246e+00 3.65e-01 5.27e+03  -6.0 8.20e+01    -  5.22e-01 4.82e-01h  1
  95 -5.3130941e+00 2.45e-01 4.05e+03  -6.0 6.74e+01    -  6.69e-01 3.27e-01h  1
  96 -5.3291111e+00 1.97e-01 2.81e+03  -6.0 1.25e+02    -  3.89e-01 1.99e-01h  1
  97 -5.3711819e+00 1.63e-01 1.33e+03  -6.0 1.72e+02    -  5.78e-01 5.44e-01h  1
  98 -5.4051630e+00 2.67e-01 2.41e+03  -6.0 1.93e+02    -  7.87e-01 5.44e-01h  1
  99 -5.4159720e+00 2.41e-01 1.63e+03  -6.0 1.97e+02    -  1.98e-01 2.37e-01h  1
iter    objective    inf_pr   inf_du lg(mu)  ||d||  lg(rg) alpha_du alpha_pr  ls
 100 -5.4384806e+00 2.83e-01 3.87e+02  -6.0 1.97e+02    -  5.71e-01 6.51e-01f  1
 101 -5.4538169e+00 6.26e+00 6.85e+03  -6.0 6.09e+02    -  3.85e-01 1.00e+00h  1
 102 -5.4568136e+00 5.65e+00 3.61e+04  -6.0 9.86e+02    -  5.06e-01 1.65e-01h  1
 103 -5.4743299e+00 1.83e+01 6.00e+04  -6.0 1.22e+03    -  4.77e-01 8.54e-01h  1
 104 -5.4779776e+00 1.61e+01 1.54e+05  -6.0 1.04e+03    -  3.30e-01 1.35e-01h  1
 105 -5.4872837e+00 1.30e+01 5.71e+05  -6.0 1.43e+03    -  6.50e-01 3.07e-01h  1
 106r-5.4872837e+00 1.30e+01 1.00e+03   0.9 0.00e+00    -  0.00e+00 1.61e-07R  2
 107r-5.4893268e+00 1.30e+01 1.00e+03   0.9 4.32e+04    -  1.58e-07 1.17e-07f  1
 108 -5.4890022e+00 1.20e+01 7.32e+04  -6.0 3.67e+00    -  1.14e-06 8.38e-02h  1
 109 -5.4870330e+00 5.34e+00 3.27e+04  -6.0 3.36e+00    -  1.29e-01 5.54e-01h  1
iter    objective    inf_pr   inf_du lg(mu)  ||d||  lg(rg) alpha_du alpha_pr  ls
 110 -5.4867438e+00 4.15e+00 2.54e+04  -6.0 1.47e+00    -  7.81e-01 2.22e-01h  1
 111 -5.4866998e+00 6.11e-04 1.85e+01  -6.0 1.38e+00    -  7.85e-01 1.00e+00h  1
 112 -5.4900311e+00 4.07e-03 1.41e+01  -6.0 5.25e+00    -  8.07e-01 1.00e+00h  1
 113 -5.4935917e+00 1.12e-02 8.74e+00  -6.0 2.26e+01    -  8.38e-01 7.26e-01h  1
 114 -5.5045786e+00 1.49e-01 7.70e+01  -6.0 1.27e+02    -  3.28e-01 4.66e-01h  1
 115 -5.5045779e+00 1.48e-01 6.02e+05  -6.0 4.03e+01    -  5.90e-01 2.06e-03h  1
 116 -5.5090535e+00 1.45e-01 2.77e+04  -6.0 1.19e+02    -  8.29e-01 2.37e-01f  1
 117 -5.5169110e+00 5.65e-01 5.27e+03  -6.0 1.93e+02    -  9.06e-01 8.57e-01f  1
 118 -5.5208170e+00 4.55e-01 6.11e+03  -6.0 5.02e+03    -  3.69e-02 1.91e-02h  1
 119 -5.5289267e+00 4.09e+00 1.28e+03  -6.0 1.01e+03    -  6.21e-01 4.19e-01h  1
iter    objective    inf_pr   inf_du lg(mu)  ||d||  lg(rg) alpha_du alpha_pr  ls
 120 -5.5334092e+00 9.84e+00 1.02e+03  -6.0 1.75e+03    -  3.43e-01 3.27e-01h  1
 121 -5.5443545e+00 3.24e+01 5.60e+03  -6.0 1.39e+03    -  6.58e-03 8.78e-01h  1
 122 -5.5444417e+00 3.18e+01 8.94e+04  -6.0 6.18e+01  -4.0 3.07e-03 1.95e-02h  1
 123 -5.5452243e+00 2.51e+01 8.36e+03  -6.0 3.25e+00  -4.5 4.51e-02 2.12e-01h  1
 124 -5.5480740e+00 1.21e-02 3.68e+03  -6.0 5.77e+00  -5.0 2.35e-01 1.00e+00h  1
 125 -5.5496688e+00 5.96e-03 4.09e+00  -6.0 1.17e+01  -5.4 9.99e-01 1.00e+00h  1
 126 -5.5521493e+00 2.92e-02 1.83e+00  -6.0 2.60e+01  -5.9 1.00e+00 1.00e+00h  1
 127 -5.5556590e+00 9.43e-02 4.80e+00  -6.0 4.68e+01  -6.4 1.00e+00 1.00e+00h  1
 128 -5.5599638e+00 2.06e-01 6.85e+00  -6.0 7.25e+01  -6.9 1.00e+00 1.00e+00h  1
 129 -5.5673212e+00 1.42e+00 5.87e+00  -6.0 4.05e+02  -7.3 5.41e-01 5.27e-01h  1
iter    objective    inf_pr   inf_du lg(mu)  ||d||  lg(rg) alpha_du alpha_pr  ls
 130 -5.5675245e+00 1.22e-01 5.50e+01  -6.0 6.36e+01  -7.8 1.00e+00 1.00e+00h  1
 131 -5.5751645e+00 1.36e+00 1.50e+02  -6.0 7.64e+02  -7.4 2.76e-01 2.72e-01h  1
 132 -5.5849150e+00 1.06e+00 2.12e+04  -6.0 2.09e+02  -7.9 1.00e+00 7.91e-01h  1
 133 -5.5876166e+00 8.71e-01 3.68e+05  -6.0 4.05e+02  -8.3 6.91e-02 2.15e-01h  1
 134 -5.5876401e+00 8.71e-01 3.69e+05  -6.0 4.11e+03  -8.8 4.25e-02 7.60e-05h  1
 135 -5.6061115e+00 3.77e+00 7.34e+05  -6.0 6.90e+02  -9.3 3.32e-01 7.15e-01f  1
 136 -5.6010423e+00 5.23e+00 9.47e+05  -6.0 1.44e+03  -9.8 3.39e-03 3.44e-01H  1
 137 -5.6146470e+00 5.83e+00 4.07e+05  -6.0 5.51e+03    -  1.52e-01 3.54e-02h  1
 138 -5.6176218e+00 1.01e+01 4.05e+05  -6.0 5.17e+03    -  9.16e-02 1.10e-01h  1
 139 -5.6210644e+00 1.12e+01 1.50e+05  -6.0 3.59e+03    -  3.15e-01 1.10e-01h  1
iter    objective    inf_pr   inf_du lg(mu)  ||d||  lg(rg) alpha_du alpha_pr  ls
 140r-5.6210644e+00 1.12e+01 1.00e+03   1.0 0.00e+00    -  0.00e+00 6.14e-08R  2
 141r-5.6257200e+00 1.12e+01 1.00e+03   1.0 1.11e+05    -  2.52e-07 1.08e-07f  1
 142 -5.6299700e+00 1.12e+01 3.03e+02  -6.0 1.61e+05    -  1.12e-02 1.22e-03h  1
 143 -5.6340916e+00 1.11e+01 3.02e+02  -6.0 9.39e+04    -  4.40e-03 7.55e-03h  1
 144 -5.6895283e+00 1.28e+01 7.58e+02  -6.0 4.39e+04    -  5.01e-02 9.31e-02h  1
 145 -6.0892108e+00 2.04e+01 8.53e+02  -6.0 3.53e+04    -  3.02e-05 5.98e-02h  1
 146 -6.0846932e+00 2.03e+01 8.47e+02  -6.0 5.76e+01  -3.9 2.39e-04 5.99e-03h  1
 147 -6.0845488e+00 2.03e+01 8.47e+02  -6.0 3.99e+01  -4.4 2.06e-02 2.21e-04h  1
 148 -6.0530499e+00 1.94e+01 8.07e+02  -6.0 3.58e+01  -4.9 5.39e-03 4.04e-02h  1
 149 -6.0525409e+00 1.94e+01 8.06e+02  -6.0 8.87e+02  -5.4 4.34e-04 1.29e-03h  1
iter    objective    inf_pr   inf_du lg(mu)  ||d||  lg(rg) alpha_du alpha_pr  ls
 150 -5.9066415e+00 1.65e+01 5.62e+02  -6.0 7.14e+01  -5.8 1.94e-02 1.56e-01h  1
 151 -5.9005478e+00 1.63e+01 5.55e+02  -6.0 4.20e+01  -5.4 3.08e-04 1.17e-02h  1
 152 -5.8999165e+00 1.63e+01 5.55e+02  -6.0 2.74e+04  -5.9 4.90e-08 1.56e-04h  1
 153 -5.9003670e+00 1.62e+01 5.55e+02  -6.0 1.74e+03  -5.5 1.59e-04 9.95e-04f  1
 154 -5.8985742e+00 1.62e+01 5.67e+02  -6.0 1.93e+01  -5.0 1.41e-01 3.43e-03h  1
 155 -5.8887101e+00 1.59e+01 5.44e+02  -6.0 5.10e+02  -5.5 5.73e-04 1.80e-02h  1
 156 -5.8884568e+00 1.59e+01 5.44e+02  -6.0 1.69e+02  -6.0 6.42e-03 6.09e-04h  1
 157 -5.8267051e+00 1.37e+01 7.08e+02  -6.0 2.20e+02  -6.5 8.70e-02 1.35e-01h  1
 158 -5.7967737e+00 1.26e+01 5.36e+02  -6.0 3.41e+02  -6.9 1.12e-01 8.40e-02h  1
 159 -5.6727858e+00 7.10e+00 1.00e+04  -6.0 5.41e+02  -7.4 2.28e-01 4.18e-01h  2
iter    objective    inf_pr   inf_du lg(mu)  ||d||  lg(rg) alpha_du alpha_pr  ls
 160 -5.6322355e+00 5.62e+00 6.51e+03  -6.0 1.73e+02  -7.0 2.25e-01 2.09e-01h  1
 161 -5.6068787e+00 4.58e+00 9.10e+03  -6.0 1.41e+02  -6.6 9.67e-02 1.84e-01h  1
 162 -5.5867626e+00 3.56e+00 1.30e+04  -6.0 3.71e+02  -7.1 1.77e-01 2.23e-01h  3
 163 -5.5960403e+00 3.56e+00 1.23e+04  -6.0 1.17e+05  -7.5 1.62e-03 1.49e-03h  1
 164 -5.6175347e+00 5.71e+00 1.66e+04  -6.0 2.10e+04  -8.0 1.17e-02 1.64e-02h  1
 165 -5.6187456e+00 5.73e+00 1.39e+04  -6.0 2.20e+03    -  2.95e-02 1.90e-02h  3
 166 -5.6205235e+00 6.44e+00 1.89e+04  -6.0 1.07e+03  -8.5 2.23e-01 7.20e-02h  1
 167 -5.6123036e+00 4.24e+00 2.70e+04  -6.0 1.02e+03  -9.0 2.28e-01 3.31e-01h  1
 168 -5.6079128e+00 3.71e+00 1.83e+04  -6.0 1.32e+03    -  1.31e-01 1.25e-01h  2
 169 -5.5971578e+00 2.20e+00 1.05e+04  -6.0 1.02e+03    -  3.75e-01 3.86e-01h  1
iter    objective    inf_pr   inf_du lg(mu)  ||d||  lg(rg) alpha_du alpha_pr  ls
 170 -5.5862205e+00 1.30e+00 1.03e+04  -6.0 6.58e+02    -  3.56e-01 4.04e-01h  1
 171 -5.5845402e+00 1.57e+00 9.17e+03  -6.0 1.32e+03    -  7.69e-01 1.15e-01h  3
 172 -5.5837486e+00 1.53e+00 8.63e+03  -6.0 9.04e+02    -  1.00e+00 5.35e-02h  5
 173 -5.5691559e+00 8.75e-01 1.31e+03  -6.0 8.58e+02    -  6.35e-01 8.52e-01H  1
 174 -5.5690001e+00 7.72e-01 1.16e+03  -6.0 6.17e+02    -  1.00e+00 1.05e-01h  4
 175 -5.5689201e+00 7.25e-01 1.10e+03  -6.0 7.89e+02    -  1.00e+00 5.68e-02h  4
 176 -5.5688671e+00 6.96e-01 1.05e+03  -6.0 7.96e+02    -  2.73e-01 3.89e-02h  4
 177 -5.5672096e+00 1.63e-01 5.02e+00  -6.0 2.40e+02    -  1.00e+00 1.00e+00H  1
 178 -5.5672890e+00 4.65e-01 6.81e+00  -6.0 4.04e+02  -9.4 8.74e-01 2.62e-01h  2
 179 -5.5674234e+00 1.18e-01 6.17e+00  -6.0 8.64e+01  -8.1 1.00e+00 1.00e+00h  1
iter    objective    inf_pr   inf_du lg(mu)  ||d||  lg(rg) alpha_du alpha_pr  ls
 180 -5.5675541e+00 6.71e-02 4.31e+00  -6.0 6.52e+01  -7.7 8.73e-01 1.00e+00h  1
 181 -5.5676899e+00 1.77e-02 1.48e+00  -6.0 3.34e+01  -7.3 1.00e+00 1.00e+00h  1
 182 -5.5680733e+00 1.42e-01 1.21e+01  -6.0 4.12e+02  -7.7 7.99e-02 2.19e-01h  1
 183 -5.5680765e+00 1.42e-01 8.40e+01  -6.0 2.04e+02  -8.2 1.03e-03 6.22e-03h  1
 184 -5.5680816e+00 1.42e-01 8.33e+01  -6.0 6.12e+02  -6.9 2.99e-06 3.30e-04f  1
 185 -5.5680805e+00 1.42e-01 1.35e+02  -6.0 6.19e+03  -7.4 2.71e-08 4.80e-06f  2
 186 -5.5687522e+00 2.83e-01 1.18e+04  -6.0 1.67e+00  -4.2 8.10e-01 1.00e+00h  1
 187 -5.5687759e+00 2.81e-01 4.26e+03  -6.0 6.27e+00  -4.7 2.81e-01 8.16e-03h  1
 188 -5.5696418e+00 4.64e-01 9.87e+03  -6.0 2.21e+00  -4.3 7.01e-01 1.00e+00f  1
 189 -5.5706716e+00 6.32e-02 8.34e+01  -6.0 8.66e-01  -3.8 1.00e+00 1.00e+00h  1
iter    objective    inf_pr   inf_du lg(mu)  ||d||  lg(rg) alpha_du alpha_pr  ls
 190 -5.5736796e+00 8.44e-01 1.89e+02  -6.0 3.76e+00  -4.3 2.70e-01 8.16e-01h  1
 191 -5.5728630e+00 5.98e-01 3.44e+02  -6.0 2.52e+00  -4.8 5.73e-01 3.05e-01h  1
 192 -5.5751523e+00 1.99e-01 1.60e+02  -6.0 2.52e+00  -5.3 1.69e-01 7.12e-01h  1
 193 -5.5759398e+00 3.94e-01 4.99e+01  -6.0 5.96e+00  -5.8 4.71e-01 1.00e+00h  1
 194 -5.5758238e+00 3.71e-01 4.10e+01  -6.0 1.40e+01  -6.2 1.98e-01 1.25e-01h  4
 195 -5.5762451e+00 1.94e-01 2.02e-01  -6.0 2.51e+01  -6.7 1.00e+00 1.00e+00h  1
 196 -5.5770201e+00 8.54e-02 3.54e-01  -6.0 7.33e+01  -7.2 1.00e+00 1.00e+00h  1
 197 -5.5791308e+00 5.75e-01 2.33e+00  -6.0 1.90e+02  -7.7 9.61e-01 1.00e+00h  1
 198 -5.5836855e+00 3.03e+00 5.52e+00  -6.0 4.20e+02  -8.1 1.00e+00 1.00e+00h  1
 199 -5.5857226e+00 5.55e+00 3.22e+01  -6.0 2.75e+03  -8.6 5.29e-01 1.53e-01h  1
iter    objective    inf_pr   inf_du lg(mu)  ||d||  lg(rg) alpha_du alpha_pr  ls
 200 -5.5905396e+00 9.60e+00 9.28e+00  -6.0 8.93e+02  -8.2 1.00e+00 8.08e-01h  1
 201 -5.5906829e+00 9.52e+00 2.05e+01  -6.0 1.21e+04    -  7.63e-02 8.81e-03h  2
 202 -5.5909431e+00 9.38e+00 6.07e+01  -6.0 4.74e+03    -  3.86e-01 1.51e-02h  3
 203 -5.5914759e+00 9.13e+00 1.19e+02  -6.0 3.78e+03    -  5.77e-01 2.94e-02h  4
 204 -5.5921604e+00 8.78e+00 1.15e+02  -6.0 2.47e+03    -  6.96e-02 4.20e-02h  4
 205 -5.5928175e+00 8.45e+00 1.17e+02  -6.0 1.70e+03    -  1.00e+00 4.20e-02h  4
 206 -5.6005545e+00 9.96e+00 8.56e+01  -6.0 1.55e+03    -  1.43e-01 5.47e-01h  1
 207 -5.6014480e+00 2.19e+01 5.81e+01  -6.0 2.77e+03    -  7.40e-01 3.63e-01h  1
 208 -5.6018233e+00 4.65e+01 3.69e+01  -6.0 3.38e+03    -  2.72e-01 4.23e-01h  1
 209 -5.6017988e+00 4.75e+01 4.41e+01  -6.0 4.75e+03    -  8.56e-02 1.52e-01h  1
iter    objective    inf_pr   inf_du lg(mu)  ||d||  lg(rg) alpha_du alpha_pr  ls
 210 -5.6018297e+00 2.71e+01 2.28e+02  -6.0 1.64e+03    -  9.63e-02 7.20e-01h  1
 211 -5.6020801e+00 6.56e+01 2.03e+02  -6.0 1.76e+04    -  5.93e-02 8.91e-02h  1
 212 -5.6018308e+00 1.47e+00 7.00e+05  -6.0 1.70e+02    -  1.48e-05 1.00e+00h  1
 213 -5.6017135e+00 3.92e-02 3.88e+01  -6.0 1.89e+01  -5.1 4.89e-01 1.00e+00h  1
 214 -5.6017115e+00 3.92e-07 2.13e-04  -6.0 1.02e-01  -5.5 1.00e+00 1.00e+00h  1
 215 -5.6017125e+00 8.54e-02 4.18e+00  -6.0 2.23e+02    -  1.00e+00 1.84e-01h  2
 216 -5.6017136e+00 2.81e-01 3.60e+01  -6.0 1.42e+03    -  1.00e+00 2.49e-02h  2
 217 -5.6017139e+00 2.46e-01 6.94e-02  -6.0 9.13e+01    -  1.00e+00 1.00e+00h  1
 218 -5.6017132e+00 4.16e-08 5.03e-01  -6.0 2.46e-01  -6.0 6.00e-01 1.00e+00h  1
 219 -5.6017170e+00 1.29e+00 5.14e-01  -6.0 2.65e+02    -  1.00e+00 1.00e+00h  1
iter    objective    inf_pr   inf_du lg(mu)  ||d||  lg(rg) alpha_du alpha_pr  ls
 220 -5.6016921e+00 7.01e-02 1.10e+00  -6.0 4.07e+02    -  1.00e+00 1.00e+00H  1
 221 -5.6016937e+00 1.98e-03 1.12e-03  -6.0 1.07e+01    -  1.00e+00 1.00e+00h  1
 222 -5.6016937e+00 4.11e-08 2.11e-08  -6.0 5.13e-02    -  1.00e+00 1.00e+00h  1
 223 -5.6020177e+00 6.52e+00 1.07e+02  -7.5 8.31e+02    -  6.01e-01 7.79e-01h  1
 224 -5.6019672e+00 1.76e+00 2.21e+01  -7.5 2.53e+02    -  8.56e-01 8.50e-01h  1
 225 -5.6019518e+00 2.94e-02 3.60e-01  -7.5 3.96e+01    -  1.00e+00 1.00e+00h  1
 226 -5.6019516e+00 9.81e-06 8.10e-05  -7.5 7.97e-01    -  1.00e+00 1.00e+00h  1
 227 -5.6019516e+00 2.81e-10 5.17e-11  -7.5 4.93e-04    -  1.00e+00 1.00e+00h  1
 228 -5.6019534e+00 1.04e-02 8.46e-01  -9.0 3.03e+01    -  9.27e-01 8.35e-01h  1
 229 -5.6019536e+00 4.17e-04 4.85e-03  -9.0 5.05e+00    -  1.00e+00 1.00e+00h  1
iter    objective    inf_pr   inf_du lg(mu)  ||d||  lg(rg) alpha_du alpha_pr  ls
 230 -5.6019536e+00 5.71e-10 4.02e-09  -9.0 6.27e-03    -  1.00e+00 1.00e+00h  1

Number of Iterations....: 230

                                   (scaled)                 (unscaled)
Objective...............:  -4.3765262350916041e+00   -5.6019535809172529e+00
Dual infeasibility......:   4.0218195070805717e-09    5.1479289690631321e-09
Constraint violation....:   4.6939007749795485e-10    5.7116267271339893e-10
Complementarity.........:   1.2840140471355271e-09    1.6435379803334748e-09
Overall NLP error.......:   4.0218195070805717e-09    5.1479289690631321e-09


Number of objective function evaluations             = 467
Number of objective gradient evaluations             = 225
Number of equality constraint evaluations            = 467
Number of inequality constraint evaluations          = 467
Number of equality constraint Jacobian evaluations   = 237
Number of inequality constraint Jacobian evaluations = 237
Number of Lagrangian Hessian evaluations             = 230
Total CPU secs in IPOPT (w/o function evaluations)   =    466.191
Total CPU secs in NLP function evaluations           =     10.231

EXIT: Optimal Solution Found.
